#TiO2.cell
 %BLOCK lattice_cart
 4.594 0.000 0.000
 0.000 4.594 0.000
 0.000 0.000 2.959
 %ENDBLOCK lattice_cart

 %BLOCK positions_frac
 Ti  0.000  0.000  0.000
 Ti  0.500  0.500  0.500
 O   0.305  0.305  0.000
 O  -0.305 -0.305  0.000
 O   0.805  0.195  0.500
 O  -0.805 -0.195  0.500
 %ENDBLOCK positions_frac

 symmetry_generate

 kpoint_mp_grid 3 3 3